p cnf 2038
-25 -641
-26 -644
-27 -647
-28 -650
-29 -653
-30 -656
-31 -659
-32 -662
-33 -665
-34 -668
-35 -671
-36 -674
-37 -677
-38 -680
-39 -683
-40 -686
-41 -689
-42 -692
-43 -695
-44 -698
-45 -701
-46 -704
-47 -707
-48 -710
-49 711
-50 712
-51 713
-52 714
-53 715
-54 716
-55 717
-56 718
-57 719
-58 720
-59 721
-60 722
-61 723
-62 724
-63 725
-64 726
-65 727
-66 728
-67 729
-68 730
-69 731
-70 -26
-70 -27
26 27 70
-71 -28
-71 -29
28 29 71
-72 -30
-72 -31
30 31 72
-73 -32
-73 -33
32 33 73
-74 -34
-74 -35
34 35 74
-75 -36
-75 -37
36 37 75
-76 -38
-76 -39
38 39 76
-77 -40
-77 -41
40 41 77
-78 -42
-78 -43
42 43 78
-79 -44
-79 -45
44 45 79
-80 -46
-80 -47
46 47 80
-81 -48
-81 -49
48 49 81
-82 -50
-82 -51
50 51 82
-83 -52
-83 -53
52 53 83
-84 -54
-84 -55
54 55 84
-85 -56
-85 -57
56 57 85
-86 -58
-86 -59
58 59 86
-87 -60
-87 -61
60 61 87
-88 -62
-88 -63
62 63 88
-89 -64
-89 -65
64 65 89
-90 -66
-90 -67
66 67 90
-91 -68
-91 -69
68 69 91
-92 70
-92 71
-70 -71 92
-93 72
-93 73
-72 -73 93
-94 74
-94 75
-74 -75 94
-95 76
-95 77
-76 -77 95
-96 78
-96 79
-78 -79 96
-97 80
-97 81
-80 -81 97
-98 82
-98 83
-82 -83 98
-99 84
-99 85
-84 -85 99
-100 86
-100 87
-86 -87 100
-101 88
-101 89
-88 -89 101
-102 90
-102 91
-90 -91 102
-103 92
-103 93
-92 -93 103
-104 94
-104 95
-94 -95 104
-105 96
-105 97
-96 -97 105
-106 98
-106 99
-98 -99 106
-107 100
-107 101
-100 -101 107
-108 103
-108 104
-103 -104 108
-109 105
-109 106
-105 -106 109
-110 102
-110 107
-102 -107 110
-111 108
-111 109
-108 -109 111
-112 110
-112 111
-110 -111 112
-113 -25
-113 26
25 -26 113
-114 25
-114 -26
-25 26 114
-115 -113
-115 -114
113 114 115
-116 25
-116 26
-25 -26 116
-117 -25
-117 -115
25 115 117
-118 25
-118 115
-25 -115 118
-119 -117
-119 -118
117 118 119
-120 25
-120 -115
-25 115 120
-121 -116
-121 -120
116 120 121
-122 -26
-122 27
26 -27 122
-123 26
-123 -27
-26 27 123
-124 -122
-124 -123
122 123 124
-125 26
-125 27
-26 -27 125
-126 121
-126 -124
-121 124 126
-127 -121
-127 124
121 -124 127
-128 -126
-128 -127
126 127 128
-129 -121
-129 -124
121 124 129
-130 -125
-130 -129
125 129 130
-131 -27
-131 28
27 -28 131
-132 27
-132 -28
-27 28 132
-133 -131
-133 -132
131 132 133
-134 27
-134 28
-27 -28 134
-135 130
-135 -133
-130 133 135
-136 -130
-136 133
130 -133 136
-137 -135
-137 -136
135 136 137
-138 -130
-138 -133
130 133 138
-139 -134
-139 -138
134 138 139
-140 -28
-140 29
28 -29 140
-141 28
-141 -29
-28 29 141
-142 -140
-142 -141
140 141 142
-143 28
-143 29
-28 -29 143
-144 139
-144 -142
-139 142 144
-145 -139
-145 142
139 -142 145
-146 -144
-146 -145
144 145 146
-147 -139
-147 -142
139 142 147
-148 -143
-148 -147
143 147 148
-149 -29
-149 30
29 -30 149
-150 29
-150 -30
-29 30 150
-151 -149
-151 -150
149 150 151
-152 29
-152 30
-29 -30 152
-153 148
-153 -151
-148 151 153
-154 -148
-154 151
148 -151 154
-155 -153
-155 -154
153 154 155
-156 -148
-156 -151
148 151 156
-157 -152
-157 -156
152 156 157
-158 -30
-158 31
30 -31 158
-159 30
-159 -31
-30 31 159
-160 -158
-160 -159
158 159 160
-161 30
-161 31
-30 -31 161
-162 157
-162 -160
-157 160 162
-163 -157
-163 160
157 -160 163
-164 -162
-164 -163
162 163 164
-165 -157
-165 -160
157 160 165
-166 -161
-166 -165
161 165 166
-167 -31
-167 32
31 -32 167
-168 31
-168 -32
-31 32 168
-169 -167
-169 -168
167 168 169
-170 31
-170 32
-31 -32 170
-171 166
-171 -169
-166 169 171
-172 -166
-172 169
166 -169 172
-173 -171
-173 -172
171 172 173
-174 -166
-174 -169
166 169 174
-175 -170
-175 -174
170 174 175
-176 -32
-176 33
32 -33 176
-177 32
-177 -33
-32 33 177
-178 -176
-178 -177
176 177 178
-179 32
-179 33
-32 -33 179
-180 175
-180 -178
-175 178 180
-181 -175
-181 178
175 -178 181
-182 -180
-182 -181
180 181 182
-183 -175
-183 -178
175 178 183
-184 -179
-184 -183
179 183 184
-185 -33
-185 34
33 -34 185
-186 33
-186 -34
-33 34 186
-187 -185
-187 -186
185 186 187
-188 33
-188 34
-33 -34 188
-189 184
-189 -187
-184 187 189
-190 -184
-190 187
184 -187 190
-191 -189
-191 -190
189 190 191
-192 -184
-192 -187
184 187 192
-193 -188
-193 -192
188 192 193
-194 -34
-194 35
34 -35 194
-195 34
-195 -35
-34 35 195
-196 -194
-196 -195
194 195 196
-197 34
-197 35
-34 -35 197
-198 193
-198 -196
-193 196 198
-199 -193
-199 196
193 -196 199
-200 -198
-200 -199
198 199 200
-201 -193
-201 -196
193 196 201
-202 -197
-202 -201
197 201 202
-203 -35
-203 36
35 -36 203
-204 35
-204 -36
-35 36 204
-205 -203
-205 -204
203 204 205
-206 35
-206 36
-35 -36 206
-207 202
-207 -205
-202 205 207
-208 -202
-208 205
202 -205 208
-209 -207
-209 -208
207 208 209
-210 -202
-210 -205
202 205 210
-211 -206
-211 -210
206 210 211
-212 -36
-212 37
36 -37 212
-213 36
-213 -37
-36 37 213
-214 -212
-214 -213
212 213 214
-215 36
-215 37
-36 -37 215
-216 211
-216 -214
-211 214 216
-217 -211
-217 214
211 -214 217
-218 -216
-218 -217
216 217 218
-219 -211
-219 -214
211 214 219
-220 -215
-220 -219
215 219 220
-221 -37
-221 38
37 -38 221
-222 37
-222 -38
-37 38 222
-223 -221
-223 -222
221 222 223
-224 37
-224 38
-37 -38 224
-225 220
-225 -223
-220 223 225
-226 -220
-226 223
220 -223 226
-227 -225
-227 -226
225 226 227
-228 -220
-228 -223
220 223 228
-229 -224
-229 -228
224 228 229
-230 -38
-230 39
38 -39 230
-231 38
-231 -39
-38 39 231
-232 -230
-232 -231
230 231 232
-233 38
-233 39
-38 -39 233
-234 229
-234 -232
-229 232 234
-235 -229
-235 232
229 -232 235
-236 -234
-236 -235
234 235 236
-237 -229
-237 -232
229 232 237
-238 -233
-238 -237
233 237 238
-239 -39
-239 40
39 -40 239
-240 39
-240 -40
-39 40 240
-241 -239
-241 -240
239 240 241
-242 39
-242 40
-39 -40 242
-243 238
-243 -241
-238 241 243
-244 -238
-244 241
238 -241 244
-245 -243
-245 -244
243 244 245
-246 -238
-246 -241
238 241 246
-247 -242
-247 -246
242 246 247
-248 -40
-248 41
40 -41 248
-249 40
-249 -41
-40 41 249
-250 -248
-250 -249
248 249 250
-251 40
-251 41
-40 -41 251
-252 247
-252 -250
-247 250 252
-253 -247
-253 250
247 -250 253
-254 -252
-254 -253
252 253 254
-255 -247
-255 -250
247 250 255
-256 -251
-256 -255
251 255 256
-257 -41
-257 42
41 -42 257
-258 41
-258 -42
-41 42 258
-259 -257
-259 -258
257 258 259
-260 41
-260 42
-41 -42 260
-261 256
-261 -259
-256 259 261
-262 -256
-262 259
256 -259 262
-263 -261
-263 -262
261 262 263
-264 -256
-264 -259
256 259 264
-265 -260
-265 -264
260 264 265
-266 -42
-266 43
42 -43 266
-267 42
-267 -43
-42 43 267
-268 -266
-268 -267
266 267 268
-269 42
-269 43
-42 -43 269
-270 265
-270 -268
-265 268 270
-271 -265
-271 268
265 -268 271
-272 -270
-272 -271
270 271 272
-273 -265
-273 -268
265 268 273
-274 -269
-274 -273
269 273 274
-275 -43
-275 44
43 -44 275
-276 43
-276 -44
-43 44 276
-277 -275
-277 -276
275 276 277
-278 43
-278 44
-43 -44 278
-279 274
-279 -277
-274 277 279
-280 -274
-280 277
274 -277 280
-281 -279
-281 -280
279 280 281
-282 -274
-282 -277
274 277 282
-283 -278
-283 -282
278 282 283
-284 -44
-284 45
44 -45 284
-285 44
-285 -45
-44 45 285
-286 -284
-286 -285
284 285 286
-287 44
-287 45
-44 -45 287
-288 283
-288 -286
-283 286 288
-289 -283
-289 286
283 -286 289
-290 -288
-290 -289
288 289 290
-291 -283
-291 -286
283 286 291
-292 -287
-292 -291
287 291 292
-293 -45
-293 46
45 -46 293
-294 45
-294 -46
-45 46 294
-295 -293
-295 -294
293 294 295
-296 45
-296 46
-45 -46 296
-297 292
-297 -295
-292 295 297
-298 -292
-298 295
292 -295 298
-299 -297
-299 -298
297 298 299
-300 -292
-300 -295
292 295 300
-301 -296
-301 -300
296 300 301
-302 -46
-302 47
46 -47 302
-303 46
-303 -47
-46 47 303
-304 -302
-304 -303
302 303 304
-305 46
-305 47
-46 -47 305
-306 301
-306 -304
-301 304 306
-307 -301
-307 304
301 -304 307
-308 -306
-308 -307
306 307 308
-309 -301
-309 -304
301 304 309
-310 -305
-310 -309
305 309 310
-311 -47
-311 48
47 -48 311
-312 47
-312 -48
-47 48 312
-313 -311
-313 -312
311 312 313
-314 47
-314 48
-47 -48 314
-315 310
-315 -313
-310 313 315
-316 -310
-316 313
310 -313 316
-317 -315
-317 -316
315 316 317
-318 -310
-318 -313
310 313 318
-319 -314
-319 -318
314 318 319
-320 -48
-320 49
48 -49 320
-321 48
-321 -49
-48 49 321
-322 -320
-322 -321
320 321 322
-323 48
-323 49
-48 -49 323
-324 319
-324 -322
-319 322 324
-325 -319
-325 322
319 -322 325
-326 -324
-326 -325
324 325 326
-327 -319
-327 -322
319 322 327
-328 -323
-328 -327
323 327 328
-329 -49
-329 50
49 -50 329
-330 49
-330 -50
-49 50 330
-331 -329
-331 -330
329 330 331
-332 49
-332 50
-49 -50 332
-333 328
-333 -331
-328 331 333
-334 -328
-334 331
328 -331 334
-335 -333
-335 -334
333 334 335
-336 -328
-336 -331
328 331 336
-337 -332
-337 -336
332 336 337
-338 -50
-338 51
50 -51 338
-339 50
-339 -51
-50 51 339
-340 -338
-340 -339
338 339 340
-341 50
-341 51
-50 -51 341
-342 337
-342 -340
-337 340 342
-343 -337
-343 340
337 -340 343
-344 -342
-344 -343
342 343 344
-345 -337
-345 -340
337 340 345
-346 -341
-346 -345
341 345 346
-347 -51
-347 52
51 -52 347
-348 51
-348 -52
-51 52 348
-349 -347
-349 -348
347 348 349
-350 51
-350 52
-51 -52 350
-351 346
-351 -349
-346 349 351
-352 -346
-352 349
346 -349 352
-353 -351
-353 -352
351 352 353
-354 -346
-354 -349
346 349 354
-355 -350
-355 -354
350 354 355
-356 -52
-356 53
52 -53 356
-357 52
-357 -53
-52 53 357
-358 -356
-358 -357
356 357 358
-359 52
-359 53
-52 -53 359
-360 355
-360 -358
-355 358 360
-361 -355
-361 358
355 -358 361
-362 -360
-362 -361
360 361 362
-363 -355
-363 -358
355 358 363
-364 -359
-364 -363
359 363 364
-365 -53
-365 54
53 -54 365
-366 53
-366 -54
-53 54 366
-367 -365
-367 -366
365 366 367
-368 53
-368 54
-53 -54 368
-369 364
-369 -367
-364 367 369
-370 -364
-370 367
364 -367 370
-371 -369
-371 -370
369 370 371
-372 -364
-372 -367
364 367 372
-373 -368
-373 -372
368 372 373
-374 -54
-374 55
54 -55 374
-375 54
-375 -55
-54 55 375
-376 -374
-376 -375
374 375 376
-377 54
-377 55
-54 -55 377
-378 373
-378 -376
-373 376 378
-379 -373
-379 376
373 -376 379
-380 -378
-380 -379
378 379 380
-381 -373
-381 -376
373 376 381
-382 -377
-382 -381
377 381 382
-383 -55
-383 56
55 -56 383
-384 55
-384 -56
-55 56 384
-385 -383
-385 -384
383 384 385
-386 55
-386 56
-55 -56 386
-387 382
-387 -385
-382 385 387
-388 -382
-388 385
382 -385 388
-389 -387
-389 -388
387 388 389
-390 -382
-390 -385
382 385 390
-391 -386
-391 -390
386 390 391
-392 -56
-392 57
56 -57 392
-393 56
-393 -57
-56 57 393
-394 -392
-394 -393
392 393 394
-395 56
-395 57
-56 -57 395
-396 391
-396 -394
-391 394 396
-397 -391
-397 394
391 -394 397
-398 -396
-398 -397
396 397 398
-399 -391
-399 -394
391 394 399
-400 -395
-400 -399
395 399 400
-401 -57
-401 58
57 -58 401
-402 57
-402 -58
-57 58 402
-403 -401
-403 -402
401 402 403
-404 57
-404 58
-57 -58 404
-405 400
-405 -403
-400 403 405
-406 -400
-406 403
400 -403 406
-407 -405
-407 -406
405 406 407
-408 -400
-408 -403
400 403 408
-409 -404
-409 -408
404 408 409
-410 -58
-410 59
58 -59 410
-411 58
-411 -59
-58 59 411
-412 -410
-412 -411
410 411 412
-413 58
-413 59
-58 -59 413
-414 409
-414 -412
-409 412 414
-415 -409
-415 412
409 -412 415
-416 -414
-416 -415
414 415 416
-417 -409
-417 -412
409 412 417
-418 -413
-418 -417
413 417 418
-419 -59
-419 60
59 -60 419
-420 59
-420 -60
-59 60 420
-421 -419
-421 -420
419 420 421
-422 59
-422 60
-59 -60 422
-423 418
-423 -421
-418 421 423
-424 -418
-424 421
418 -421 424
-425 -423
-425 -424
423 424 425
-426 -418
-426 -421
418 421 426
-427 -422
-427 -426
422 426 427
-428 -60
-428 61
60 -61 428
-429 60
-429 -61
-60 61 429
-430 -428
-430 -429
428 429 430
-431 60
-431 61
-60 -61 431
-432 427
-432 -430
-427 430 432
-433 -427
-433 430
427 -430 433
-434 -432
-434 -433
432 433 434
-435 -427
-435 -430
427 430 435
-436 -431
-436 -435
431 435 436
-437 -61
-437 62
61 -62 437
-438 61
-438 -62
-61 62 438
-439 -437
-439 -438
437 438 439
-440 61
-440 62
-61 -62 440
-441 436
-441 -439
-436 439 441
-442 -436
-442 439
436 -439 442
-443 -441
-443 -442
441 442 443
-444 -436
-444 -439
436 439 444
-445 -440
-445 -444
440 444 445
-446 -62
-446 63
62 -63 446
-447 62
-447 -63
-62 63 447
-448 -446
-448 -447
446 447 448
-449 62
-449 63
-62 -63 449
-450 445
-450 -448
-445 448 450
-451 -445
-451 448
445 -448 451
-452 -450
-452 -451
450 451 452
-453 -445
-453 -448
445 448 453
-454 -449
-454 -453
449 453 454
-455 -63
-455 64
63 -64 455
-456 63
-456 -64
-63 64 456
-457 -455
-457 -456
455 456 457
-458 63
-458 64
-63 -64 458
-459 454
-459 -457
-454 457 459
-460 -454
-460 457
454 -457 460
-461 -459
-461 -460
459 460 461
-462 -454
-462 -457
454 457 462
-463 -458
-463 -462
458 462 463
-464 -64
-464 65
64 -65 464
-465 64
-465 -65
-64 65 465
-466 -464
-466 -465
464 465 466
-467 64
-467 65
-64 -65 467
-468 463
-468 -466
-463 466 468
-469 -463
-469 466
463 -466 469
-470 -468
-470 -469
468 469 470
-471 -463
-471 -466
463 466 471
-472 -467
-472 -471
467 471 472
-473 -65
-473 66
65 -66 473
-474 65
-474 -66
-65 66 474
-475 -473
-475 -474
473 474 475
-476 65
-476 66
-65 -66 476
-477 472
-477 -475
-472 475 477
-478 -472
-478 475
472 -475 478
-479 -477
-479 -478
477 478 479
-480 -472
-480 -475
472 475 480
-481 -476
-481 -480
476 480 481
-482 -66
-482 67
66 -67 482
-483 66
-483 -67
-66 67 483
-484 -482
-484 -483
482 483 484
-485 66
-485 67
-66 -67 485
-486 481
-486 -484
-481 484 486
-487 -481
-487 484
481 -484 487
-488 -486
-488 -487
486 487 488
-489 -481
-489 -484
481 484 489
-490 -485
-490 -489
485 489 490
-491 -67
-491 68
67 -68 491
-492 67
-492 -68
-67 68 492
-493 -491
-493 -492
491 492 493
-494 67
-494 68
-67 -68 494
-495 490
-495 -493
-490 493 495
-496 -490
-496 493
490 -493 496
-497 -495
-497 -496
495 496 497
-498 -490
-498 -493
490 493 498
-499 -494
-499 -498
494 498 499
-500 -68
-500 69
68 -69 500
-501 68
-501 -69
-68 69 501
-502 -500
-502 -501
500 501 502
-503 68
-503 69
-68 -69 503
-504 499
-504 -502
-499 502 504
-505 -499
-505 502
499 -502 505
-506 -504
-506 -505
504 505 506
-507 -499
-507 -502
499 502 507
-508 -503
-508 -507
503 507 508
-509 25
-509 -119
-25 119 509
-510 -25
-510 27
25 -27 510
-511 -509
-511 -510
509 510 511
-512 25
-512 -128
-25 128 512
-513 -25
-513 28
25 -28 513
-514 -512
-514 -513
512 513 514
-515 25
-515 -137
-25 137 515
-516 -25
-516 29
25 -29 516
-517 -515
-517 -516
515 516 517
-518 25
-518 -146
-25 146 518
-519 -25
-519 30
25 -30 519
-520 -518
-520 -519
518 519 520
-521 25
-521 -155
-25 155 521
-522 -25
-522 31
25 -31 522
-523 -521
-523 -522
521 522 523
-524 25
-524 -164
-25 164 524
-525 -25
-525 32
25 -32 525
-526 -524
-526 -525
524 525 526
-527 25
-527 -173
-25 173 527
-528 -25
-528 33
25 -33 528
-529 -527
-529 -528
527 528 529
-530 25
-530 -182
-25 182 530
-531 -25
-531 34
25 -34 531
-532 -530
-532 -531
530 531 532
-533 25
-533 -191
-25 191 533
-534 -25
-534 35
25 -35 534
-535 -533
-535 -534
533 534 535
-536 25
-536 -200
-25 200 536
-537 -25
-537 36
25 -36 537
-538 -536
-538 -537
536 537 538
-539 25
-539 -209
-25 209 539
-540 -25
-540 37
25 -37 540
-541 -539
-541 -540
539 540 541
-542 25
-542 -218
-25 218 542
-543 -25
-543 38
25 -38 543
-544 -542
-544 -543
542 543 544
-545 25
-545 -227
-25 227 545
-546 -25
-546 39
25 -39 546
-547 -545
-547 -546
545 546 547
-548 25
-548 -236
-25 236 548
-549 -25
-549 40
25 -40 549
-550 -548
-550 -549
548 549 550
-551 25
-551 -245
-25 245 551
-552 -25
-552 41
25 -41 552
-553 -551
-553 -552
551 552 553
-554 25
-554 -254
-25 254 554
-555 -25
-555 42
25 -42 555
-556 -554
-556 -555
554 555 556
-557 25
-557 -263
-25 263 557
-558 -25
-558 43
25 -43 558
-559 -557
-559 -558
557 558 559
-560 25
-560 -272
-25 272 560
-561 -25
-561 44
25 -44 561
-562 -560
-562 -561
560 561 562
-563 25
-563 -281
-25 281 563
-564 -25
-564 45
25 -45 564
-565 -563
-565 -564
563 564 565
-566 25
-566 -290
-25 290 566
-567 -25
-567 46
25 -46 567
-568 -566
-568 -567
566 567 568
-569 25
-569 -299
-25 299 569
-570 -25
-570 47
25 -47 570
-571 -569
-571 -570
569 570 571
-572 25
-572 -308
-25 308 572
-573 -25
-573 48
25 -48 573
-574 -572
-574 -573
572 573 574
-575 25
-575 -317
-25 317 575
-576 -25
-576 49
25 -49 576
-577 -575
-577 -576
575 576 577
-578 25
-578 -326
-25 326 578
-579 -25
-579 50
25 -50 579
-580 -578
-580 -579
578 579 580
-581 25
-581 -335
-25 335 581
-582 -25
-582 51
25 -51 582
-583 -581
-583 -582
581 582 583
-584 25
-584 -344
-25 344 584
-585 -25
-585 52
25 -52 585
-586 -584
-586 -585
584 585 586
-587 25
-587 -353
-25 353 587
-588 -25
-588 53
25 -53 588
-589 -587
-589 -588
587 588 589
-590 25
-590 -362
-25 362 590
-591 -25
-591 54
25 -54 591
-592 -590
-592 -591
590 591 592
-593 25
-593 -371
-25 371 593
-594 -25
-594 55
25 -55 594
-595 -593
-595 -594
593 594 595
-596 25
-596 -380
-25 380 596
-597 -25
-597 56
25 -56 597
-598 -596
-598 -597
596 597 598
-599 25
-599 -389
-25 389 599
-600 -25
-600 57
25 -57 600
-601 -599
-601 -600
599 600 601
-602 25
-602 -398
-25 398 602
-603 -25
-603 58
25 -58 603
-604 -602
-604 -603
602 603 604
-605 25
-605 -407
-25 407 605
-606 -25
-606 59
25 -59 606
-607 -605
-607 -606
605 606 607
-608 25
-608 -416
-25 416 608
-609 -25
-609 60
25 -60 609
-610 -608
-610 -609
608 609 610
-611 25
-611 -425
-25 425 611
-612 -25
-612 61
25 -61 612
-613 -611
-613 -612
611 612 613
-614 25
-614 -434
-25 434 614
-615 -25
-615 62
25 -62 615
-616 -614
-616 -615
614 615 616
-617 25
-617 -443
-25 443 617
-618 -25
-618 63
25 -63 618
-619 -617
-619 -618
617 618 619
-620 25
-620 -452
-25 452 620
-621 -25
-621 64
25 -64 621
-622 -620
-622 -621
620 621 622
-623 25
-623 -461
-25 461 623
-624 -25
-624 65
25 -65 624
-625 -623
-625 -624
623 624 625
-626 25
-626 -470
-25 470 626
-627 -25
-627 66
25 -66 627
-628 -626
-628 -627
626 627 628
-629 25
-629 -479
-25 479 629
-630 -25
-630 67
25 -67 630
-631 -629
-631 -630
629 630 631
-632 25
-632 -488
-25 488 632
-633 -25
-633 68
25 -68 633
-634 -632
-634 -633
632 633 634
-635 25
-635 -497
-25 497 635
-636 -25
-636 69
25 -69 636
-637 -635
-637 -636
635 636 637
-638 25
-638 -506
-25 506 638
-639 1
-639 112
-1 -112 639
-640 -112
-640 113
112 -113 640
-641 -639
-641 -640
639 640 641
-642 2
-642 112
-2 -112 642
-643 -112
-643 -511
112 511 643
-644 -642
-644 -643
642 643 644
-645 3
-645 112
-3 -112 645
-646 -112
-646 -514
112 514 646
-647 -645
-647 -646
645 646 647
-648 4
-648 112
-4 -112 648
-649 -112
-649 -517
112 517 649
-650 -648
-650 -649
648 649 650
-651 5
-651 112
-5 -112 651
-652 -112
-652 -520
112 520 652
-653 -651
-653 -652
651 652 653
-654 6
-654 112
-6 -112 654
-655 -112
-655 -523
112 523 655
-656 -654
-656 -655
654 655 656
-657 7
-657 112
-7 -112 657
-658 -112
-658 -526
112 526 658
-659 -657
-659 -658
657 658 659
-660 8
-660 112
-8 -112 660
-661 -112
-661 -529
112 529 661
-662 -660
-662 -661
660 661 662
-663 9
-663 112
-9 -112 663
-664 -112
-664 -532
112 532 664
-665 -663
-665 -664
663 664 665
-666 10
-666 112
-10 -112 666
-667 -112
-667 -535
112 535 667
-668 -666
-668 -667
666 667 668
-669 11
-669 112
-11 -112 669
-670 -112
-670 -538
112 538 670
-671 -669
-671 -670
669 670 671
-672 12
-672 112
-12 -112 672
-673 -112
-673 -541
112 541 673
-674 -672
-674 -673
672 673 674
-675 13
-675 112
-13 -112 675
-676 -112
-676 -544
112 544 676
-677 -675
-677 -676
675 676 677
-678 14
-678 112
-14 -112 678
-679 -112
-679 -547
112 547 679
-680 -678
-680 -679
678 679 680
-681 15
-681 112
-15 -112 681
-682 -112
-682 -550
112 550 682
-683 -681
-683 -682
681 682 683
-684 16
-684 112
-16 -112 684
-685 -112
-685 -553
112 553 685
-686 -684
-686 -685
684 685 686
-687 17
-687 112
-17 -112 687
-688 -112
-688 -556
112 556 688
-689 -687
-689 -688
687 688 689
-690 18
-690 112
-18 -112 690
-691 -112
-691 -559
112 559 691
-692 -690
-692 -691
690 691 692
-693 19
-693 112
-19 -112 693
-694 -112
-694 -562
112 562 694
-695 -693
-695 -694
693 694 695
-696 20
-696 112
-20 -112 696
-697 -112
-697 -565
112 565 697
-698 -696
-698 -697
696 697 698
-699 21
-699 112
-21 -112 699
-700 -112
-700 -568
112 568 700
-701 -699
-701 -700
699 700 701
-702 22
-702 112
-22 -112 702
-703 -112
-703 -571
112 571 703
-704 -702
-704 -703
702 703 704
-705 23
-705 112
-23 -112 705
-706 -112
-706 -574
112 574 706
-707 -705
-707 -706
705 706 707
-708 24
-708 112
-24 -112 708
-709 -112
-709 -577
112 577 709
-710 -708
-710 -709
708 709 710
-711 -112
-711 -580
112 580 711
-712 -112
-712 -583
112 583 712
-713 -112
-713 -586
112 586 713
-714 -112
-714 -589
112 589 714
-715 -112
-715 -592
112 592 715
-716 -112
-716 -595
112 595 716
-717 -112
-717 -598
112 598 717
-718 -112
-718 -601
112 601 718
-719 -112
-719 -604
112 604 719
-720 -112
-720 -607
112 607 720
-721 -112
-721 -610
112 610 721
-722 -112
-722 -613
112 613 722
-723 -112
-723 -616
112 616 723
-724 -112
-724 -619
112 619 724
-725 -112
-725 -622
112 622 725
-726 -112
-726 -625
112 625 726
-727 -112
-727 -628
112 628 727
-728 -112
-728 -631
112 631 728
-729 -112
-729 -634
112 634 729
-730 -112
-730 -637
112 637 730
-731 -112
-731 638
112 -638 731
-732 -69
-732 508
69 -508 732
-733 25
-733 -732
-25 732 733
733
